; benchmark generated from python API
(set-info :status unknown)
(declare-fun x_months () Int)
(declare-fun x_beta () Int)
(assert
 (<= (- 1202) x_months))
(assert
 (>= 1209 x_months))
(assert
 (>= x_beta 0))
(assert
 (let ((?x1752 (+ x_months 24003)))
 (let ((?x4580 (- ?x1752 (* (div (- ?x1752 1) 12) 12))))
 (let ((?x3355 (ite (or (= ?x4580 4) (= ?x4580 6) (= ?x4580 9) (= ?x4580 11)) 30 31)))
 (let (($x216 (and (= (mod (div (- ?x1752 1) 12) 4) 0) (and (distinct (mod (div (- ?x1752 1) 12) 100) 0) true))))
 (let ((?x4581 (ite (or $x216 (= (mod (div (- ?x1752 1) 12) 400) 0)) 29 28)))
 (< x_beta (ite (= ?x4580 2) ?x4581 ?x3355))))))))
(assert
 (let ((?x3281 (- (+ (* 2023 12) 1) 24003)))
 (let (($x4648 (= x_months ?x3281)))
 (or (> x_months ?x3281) (and $x4648 (<= 0 x_beta))))))
(assert
 (let ((?x3281 (- (+ (* 2023 12) 1) 24003)))
 (let (($x4648 (= x_months ?x3281)))
 (or (< x_months ?x3281) (and $x4648 (>= 30 x_beta))))))
(assert
 (let ((?x2192 (+ x_beta 1)))
(let ((?x3934 (+ (+ x_months 0) 24003)))
(let ((?x2824 (- ?x3934 (* (div (- ?x3934 1) 12) 12))))
(let ((?x3896 (ite (or (= ?x2824 4) (= ?x2824 6) (= ?x2824 9) (= ?x2824 11)) 30 31)))
(let (($x3894 (and (= (mod (div (- ?x3934 1) 12) 4) 0) (and (distinct (mod (div (- ?x3934 1) 12) 100) 0) true))))
(let (($x4556 (or $x3894 (= (mod (div (- ?x3934 1) 12) 400) 0))))
(let ((?x3246 (ite (= ?x2824 2) (ite $x4556 29 28) ?x3896)))
(let (($x2936 (> 1 ?x2192)))
(let ((?x3263 (ite $x2936 1 (ite (> ?x2192 ?x3246) ?x3246 ?x2192))))
(let ((?x2251 (ite (> 1 ?x3263) 1 (ite (> ?x3263 ?x3246) ?x3246 ?x3263))))
(let ((?x3683 (ite (= 2 ?x2824) (ite $x4556 31 31) (ite (= 1 ?x2824) (ite $x4556 0 0) 0))))
(let ((?x2093 (ite (= 4 ?x2824) (ite $x4556 91 90) (ite (= 3 ?x2824) (ite $x4556 60 59) ?x3683))))
(let ((?x2125 (ite (= 6 ?x2824) (ite $x4556 152 151) (ite (= 5 ?x2824) (ite $x4556 121 120) ?x2093))))
(let ((?x3651 (ite (= 8 ?x2824) (ite $x4556 213 212) (ite (= 7 ?x2824) (ite $x4556 182 181) ?x2125))))
(let ((?x3043 (ite (= 10 ?x2824) (ite $x4556 274 273) (ite (= 9 ?x2824) (ite $x4556 244 243) ?x3651))))
(let ((?x4279 (ite (= 12 ?x2824) (ite $x4556 335 334) (ite (= 11 ?x2824) (ite $x4556 305 304) ?x3043))))
(let ((?x3801 (+ (* 365 (- (div (- ?x3934 1) 12) 1)) (div (- (div (- ?x3934 1) 12) 1) 4))))
(let ((?x4298 (+ (- ?x3801 (div (- (div (- ?x3934 1) 12) 1) 100)) (div (- (div (- ?x3934 1) 12) 1) 400))))
(let ((?x4286 (+ (+ (- (+ (+ ?x4298 ?x4279) (- ?x2251 1)) 730179) 30) 730179)))
(let ((?x2825 (mod ?x4286 146097)))
(let ((?x4272 (div ?x2825 36524)))
(let ((?x4271 (ite (<= 4 ?x4272) 3 ?x4272)))
(let ((?x1047 (- ?x2825 (* ?x4271 36524))))
(let ((?x3447 (mod ?x1047 1461)))
(let ((?x4229 (div ?x3447 365)))
(let ((?x4265 (ite (<= 4 ?x4229) 3 ?x4229)))
(let ((?x4252 (+ (+ (* (div ?x4286 146097) 400) (* ?x4271 100)) (* (div ?x1047 1461) 4))))
(let ((?x2317 (+ (+ ?x4252 ?x4265) 1)))
(let (($x4244 (or (and (= (mod ?x2317 4) 0) (and (distinct (mod ?x2317 100) 0) true)) (= (mod ?x2317 400) 0))))
(let ((?x4264 (- ?x3447 (* ?x4265 365))))
(let ((?x4246 (ite $x4244 31 31)))
(let (($x4221 (>= ?x4264 ?x4246)))
(let ((?x4192 (ite $x4221 (+ (- ?x4264 ?x4246) 1) (+ (- ?x4264 (ite $x4244 0 0)) 1))))
(let ((?x4247 (ite $x4244 60 59)))
(let (($x4223 (>= ?x4264 ?x4247)))
(let ((?x3078 (ite $x4244 91 90)))
(let (($x4210 (>= ?x4264 ?x3078)))
(let ((?x4179 (ite $x4210 (+ (- ?x4264 ?x3078) 1) (ite $x4223 (+ (- ?x4264 ?x4247) 1) ?x4192))))
(let ((?x4230 (ite $x4244 121 120)))
(let (($x4209 (>= ?x4264 ?x4230)))
(let ((?x4231 (ite $x4244 152 151)))
(let (($x3373 (>= ?x4264 ?x4231)))
(let ((?x1660 (ite $x3373 (+ (- ?x4264 ?x4231) 1) (ite $x4209 (+ (- ?x4264 ?x4230) 1) ?x4179))))
(let ((?x2959 (ite $x4244 182 181)))
(let (($x1985 (>= ?x4264 ?x2959)))
(let ((?x4228 (ite $x4244 213 212)))
(let (($x2706 (>= ?x4264 ?x4228)))
(let ((?x4163 (ite $x2706 (+ (- ?x4264 ?x4228) 1) (ite $x1985 (+ (- ?x4264 ?x2959) 1) ?x1660))))
(let ((?x2604 (ite $x4244 244 243)))
(let (($x4203 (>= ?x4264 ?x2604)))
(let ((?x4217 (ite $x4244 274 273)))
(let (($x4204 (>= ?x4264 ?x4217)))
(let ((?x4169 (ite $x4204 (+ (- ?x4264 ?x4217) 1) (ite $x4203 (+ (- ?x4264 ?x2604) 1) ?x4163))))
(let ((?x4220 (ite $x4244 305 304)))
(let (($x4205 (>= ?x4264 ?x4220)))
(let ((?x4218 (ite $x4244 335 334)))
(let (($x4207 (>= ?x4264 ?x4218)))
(let ((?x4149 (ite $x4207 (+ (- ?x4264 ?x4218) 1) (ite $x4205 (+ (- ?x4264 ?x4220) 1) ?x4169))))
(let (($x3023 (= 30 0)))
(let ((?x1179 (+ (+ x_months 1) 24003)))
(let ((?x2266 (- ?x1179 (* (div (- ?x1179 1) 12) 12))))
(let ((?x1417 (ite (or (= ?x2266 4) (= ?x2266 6) (= ?x2266 9) (= ?x2266 11)) 30 31)))
(let (($x2212 (and (= (mod (div (- ?x1179 1) 12) 4) 0) (and (distinct (mod (div (- ?x1179 1) 12) 100) 0) true))))
(let (($x4617 (or $x2212 (= (mod (div (- ?x1179 1) 12) 400) 0))))
(let ((?x545 (ite (= ?x2266 2) (ite $x4617 29 28) ?x1417)))
(let ((?x1359 (ite $x2936 1 (ite (> ?x2192 ?x545) ?x545 ?x2192))))
(let ((?x4356 (ite (> 1 ?x1359) 1 (ite (> ?x1359 ?x545) ?x545 ?x1359))))
(let ((?x790 (ite (= 2 ?x2266) (ite $x4617 31 31) (ite (= 1 ?x2266) (ite $x4617 0 0) 0))))
(let ((?x2538 (ite (= 4 ?x2266) (ite $x4617 91 90) (ite (= 3 ?x2266) (ite $x4617 60 59) ?x790))))
(let ((?x4379 (ite (= 6 ?x2266) (ite $x4617 152 151) (ite (= 5 ?x2266) (ite $x4617 121 120) ?x2538))))
(let ((?x4366 (ite (= 8 ?x2266) (ite $x4617 213 212) (ite (= 7 ?x2266) (ite $x4617 182 181) ?x4379))))
(let ((?x1610 (ite (= 10 ?x2266) (ite $x4617 274 273) (ite (= 9 ?x2266) (ite $x4617 244 243) ?x4366))))
(let ((?x2341 (ite (= 12 ?x2266) (ite $x4617 335 334) (ite (= 11 ?x2266) (ite $x4617 305 304) ?x1610))))
(let ((?x4402 (+ (* 365 (- (div (- ?x1179 1) 12) 1)) (div (- (div (- ?x1179 1) 12) 1) 4))))
(let ((?x1511 (+ (- ?x4402 (div (- (div (- ?x1179 1) 12) 1) 100)) (div (- (div (- ?x1179 1) 12) 1) 400))))
(let ((?x2893 (+ (+ (- (+ (+ ?x1511 ?x2341) (- ?x4356 1)) 730179) 0) 730179)))
(let ((?x4510 (mod ?x2893 146097)))
(let ((?x4485 (div ?x4510 36524)))
(let ((?x4509 (ite (<= 4 ?x4485) 3 ?x4485)))
(let ((?x3932 (- ?x4510 (* ?x4509 36524))))
(let ((?x3985 (mod ?x3932 1461)))
(let ((?x4487 (div ?x3985 365)))
(let ((?x4484 (ite (<= 4 ?x4487) 3 ?x4487)))
(let ((?x606 (+ (+ (* (div ?x2893 146097) 400) (* ?x4509 100)) (* (div ?x3932 1461) 4))))
(let ((?x1688 (+ (+ ?x606 ?x4484) 1)))
(let (($x4451 (or (and (= (mod ?x1688 4) 0) (and (distinct (mod ?x1688 100) 0) true)) (= (mod ?x1688 400) 0))))
(let ((?x1893 (- ?x3985 (* ?x4484 365))))
(let ((?x426 (ite $x4451 31 31)))
(let (($x1094 (>= ?x1893 ?x426)))
(let ((?x1219 (ite $x1094 (+ (- ?x1893 ?x426) 1) (+ (- ?x1893 (ite $x4451 0 0)) 1))))
(let ((?x2433 (ite $x4451 60 59)))
(let (($x4460 (>= ?x1893 ?x2433)))
(let ((?x3446 (ite $x4451 91 90)))
(let (($x4534 (>= ?x1893 ?x3446)))
(let ((?x4367 (ite $x4534 (+ (- ?x1893 ?x3446) 1) (ite $x4460 (+ (- ?x1893 ?x2433) 1) ?x1219))))
(let ((?x4380 (ite $x4451 121 120)))
(let (($x2443 (>= ?x1893 ?x4380)))
(let ((?x4378 (ite $x4451 152 151)))
(let (($x4462 (>= ?x1893 ?x4378)))
(let ((?x4545 (ite $x4462 (+ (- ?x1893 ?x4378) 1) (ite $x2443 (+ (- ?x1893 ?x4380) 1) ?x4367))))
(let ((?x2729 (ite $x4451 182 181)))
(let (($x4392 (>= ?x1893 ?x2729)))
(let ((?x4449 (ite $x4451 213 212)))
(let (($x3796 (>= ?x1893 ?x4449)))
(let ((?x2782 (ite $x3796 (+ (- ?x1893 ?x4449) 1) (ite $x4392 (+ (- ?x1893 ?x2729) 1) ?x4545))))
(let ((?x1828 (ite $x4451 244 243)))
(let (($x2502 (>= ?x1893 ?x1828)))
(let ((?x4436 (ite $x4451 274 273)))
(let (($x4403 (>= ?x1893 ?x4436)))
(let ((?x4320 (ite $x4403 (+ (- ?x1893 ?x4436) 1) (ite $x2502 (+ (- ?x1893 ?x1828) 1) ?x2782))))
(let ((?x353 (ite $x4451 305 304)))
(let (($x1672 (>= ?x1893 ?x353)))
(let ((?x4355 (ite $x4451 335 334)))
(let (($x4415 (>= ?x1893 ?x4355)))
(let ((?x4326 (ite $x4415 (+ (- ?x1893 ?x4355) 1) (ite $x1672 (+ (- ?x1893 ?x353) 1) ?x4320))))
(let (($x682 (= 0 0)))
(let ((?x1506 (ite $x4209 5 (ite $x4210 4 (ite $x4223 3 (ite $x4221 2 1))))))
(let ((?x4201 (ite $x4203 9 (ite $x2706 8 (ite $x1985 7 (ite $x3373 6 ?x1506))))))
(let ((?x4208 (ite $x4207 12 (ite $x4205 11 (ite $x4204 10 ?x4201)))))
(let ((?x4142 (+ (* (ite $x3023 (div (- ?x3934 1) 12) ?x2317) 12) (ite $x3023 ?x2824 ?x4208))))
(let ((?x982 (ite $x2443 5 (ite $x4534 4 (ite $x4460 3 (ite $x1094 2 1))))))
(let ((?x3797 (ite $x2502 9 (ite $x3796 8 (ite $x4392 7 (ite $x4462 6 ?x982))))))
(let ((?x4307 (+ (* (ite $x682 (div (- ?x1179 1) 12) ?x1688) 12) (ite $x682 ?x2266 (ite $x4415 12 (ite $x1672 11 (ite $x4403 10 ?x3797)))))))
(let (($x4145 (and (= (- ?x4307 24003) (- ?x4142 24003)) (= (- (ite $x682 ?x4356 ?x4326) 1) (- (ite $x3023 ?x2251 ?x4149) 1)))))
(not $x4145))))))))))))))))))))))))))))))))))))))))))))))))))))))))))))))))))))))))))))))))))))))))))))))))))))))))))))))))))))))))))))))
(check-sat)
